results_rootrelaxation/bin018_060_000.srr.sol
solution status: optimal solution found
objective value:                                    0
_var2767_                           0.067701973070282 	(obj:0)
_var2771_                           0.246205047799425 	(obj:0)
_var2774_                           0.183546961883992 	(obj:0)
_var2819_                           0.234111655572532 	(obj:0)
_var2835_                           0.258082609946828 	(obj:0)
_var2849_                           0.218769338688596 	(obj:0)
_var2860_                           0.196010361232352 	(obj:0)
_var2874_                           0.246647724265573 	(obj:0)
_var2883_                           0.209702811121537 	(obj:0)
_var2892_                            0.20349313180017 	(obj:0)
_var2903_                           0.169781836654384 	(obj:0)
_var2905_                           0.213301213828846 	(obj:0)
_var2909_                         0.00894959921952021 	(obj:0)
_var2911_                           0.319380277450556 	(obj:0)
_var2913_                          0.0428791239066548 	(obj:0)
_var2914_                          0.0296871181309059 	(obj:0)
_var2921_                          0.0777839207965141 	(obj:0)
_var2927_                          0.0417473646991443 	(obj:0)
_var2932_                           0.374766387924505 	(obj:0)
_var2936_                           0.202025545513122 	(obj:0)
_var2938_                          0.0583766678401997 	(obj:0)
_var2943_                           0.113819016213062 	(obj:0)
_var2944_                          0.0337448478738407 	(obj:0)
_var2946_                           0.127922800888428 	(obj:0)
_var2950_                           0.218175959383677 	(obj:0)
_var2967_                          0.0741896409732433 	(obj:0)
_var2968_                          0.0396882027306386 	(obj:0)
_var2971_                          0.0243112316754871 	(obj:0)
_var2973_                          0.0351735978539154 	(obj:0)
_var2974_                           0.219415232500025 	(obj:0)
_var2975_                           0.154501698234436 	(obj:0)
_var2978_                          0.0409608341804616 	(obj:0)
_var2982_                           0.208286741564019 	(obj:0)
_var2985_                           0.197589151950544 	(obj:0)
_var2987_                           0.278354453952992 	(obj:0)
_var2988_                           0.067887775469357 	(obj:0)
_var2991_                          0.0964556745308183 	(obj:0)
_var2995_                          0.0972388551387997 	(obj:0)
_var2997_                          0.0588370029719469 	(obj:0)
_var2998_                           0.107584272100807 	(obj:0)
_var3002_                            0.09268256708103 	(obj:0)
_var3016_                           0.335332303784901 	(obj:0)
_var3018_                          0.0148780705065711 	(obj:0)
_var3020_                           0.375531517725129 	(obj:0)
_var3022_                           0.141524532652064 	(obj:0)
_var3026_                          0.0590666029486073 	(obj:0)
_var3028_                          0.0848473105086544 	(obj:0)
_var3029_                           0.114727584145568 	(obj:0)
_var3031_                           0.241698062706965 	(obj:0)
_var3034_                           0.243748056390552 	(obj:0)
_var3037_                          0.0384430428239641 	(obj:0)
_var3040_                             0.1446344825566 	(obj:0)
_var3041_                          0.0778426902670376 	(obj:0)
_var3044_                           0.124694506398435 	(obj:0)
_var3046_                           0.229922373232182 	(obj:0)
_var3054_                          0.0348125984320266 	(obj:0)
_var3066_                           0.344172063211107 	(obj:0)
_var3072_                           0.169923755426697 	(obj:0)
_var3075_                            0.13806493109212 	(obj:0)
_var3077_                             0.1283579458564 	(obj:0)
_var3078_                         0.000966095240458571 	(obj:0)
_var3079_                            0.11522134068245 	(obj:0)
_var3084_                           0.132168366844871 	(obj:0)
_var3086_                           0.169921903727446 	(obj:0)
_var3088_                          0.0996691263164082 	(obj:0)
_var3089_                           0.168023477808503 	(obj:0)
_var3091_                           0.147363672027458 	(obj:0)
_var3094_                          0.0366832412974927 	(obj:0)
_var3097_                          0.0444804009955579 	(obj:0)
_var3099_                            0.26564134288542 	(obj:0)
_var3100_                          0.0689341311154751 	(obj:0)
_var3103_                          0.0421873702263172 	(obj:0)
_var3105_                          0.0373656318632769 	(obj:0)
_var3107_                          0.0542632502740973 	(obj:0)
_var3110_                           0.147663540548917 	(obj:0)
_var3111_                            0.19970727487816 	(obj:0)
_var3112_                          0.0865990516447081 	(obj:0)
_var3113_                          0.0901969185782548 	(obj:0)
_var3114_                           0.167849805148133 	(obj:0)
_var3115_                           0.175078366140812 	(obj:0)
_var3118_                          0.0634083626948746 	(obj:0)
_var3119_                           0.142166559415866 	(obj:0)
_var3121_                          0.0528295917539028 	(obj:0)
_var3123_                           0.135915689768482 	(obj:0)
_var3124_                           0.024745732256274 	(obj:0)
_var3125_                           0.149834531551826 	(obj:0)
_var3126_                            0.20977283610796 	(obj:0)
_var3127_                          0.0439934357909649 	(obj:0)
_var3129_                           0.244648779977331 	(obj:0)
_var3130_                          0.0847700768378467 	(obj:0)
_var3131_                           0.029645613018888 	(obj:0)
_var3134_                          0.0285037060888474 	(obj:0)
_var3135_                           0.137109299808097 	(obj:0)
_var3137_                          0.0373866091355464 	(obj:0)
_var3139_                          0.0946225031456891 	(obj:0)
_var3141_                          0.0378529949431444 	(obj:0)
_var3144_                           0.119534946100557 	(obj:0)
_var3145_                           0.043036656814301 	(obj:0)
_var3147_                           0.205593718740136 	(obj:0)
_var3149_                           0.109804455827766 	(obj:0)
_var3150_                           0.115597281556947 	(obj:0)
_var3151_                           0.170224912776786 	(obj:0)
_var3152_                          0.0353281678988399 	(obj:0)
_var3153_                            0.18054390861495 	(obj:0)
_var3154_                           0.111829036459467 	(obj:0)
_var3156_                         0.00475742334595036 	(obj:0)
_var3158_                           0.051629294969659 	(obj:0)
_var3159_                           0.139077103578355 	(obj:0)
_var3160_                          0.0187934461560886 	(obj:0)
_var3161_                          0.0273777380963237 	(obj:0)
_var3163_                          0.0738138927949234 	(obj:0)
_var3164_                          0.0599341552056442 	(obj:0)
_var3166_                          0.0591344703123996 	(obj:0)
_var3168_                           0.164852398992521 	(obj:0)
_var3171_                           0.271565193726153 	(obj:0)
_var3172_                           0.185169641858436 	(obj:0)
_var3173_                           0.185760178387728 	(obj:0)
_var3175_                           0.102218768088423 	(obj:0)
_var3177_                            0.12817439712724 	(obj:0)
_var3178_                           0.184161190025871 	(obj:0)
_var3179_                          0.0760626926141015 	(obj:0)
_var3180_                           0.220633278376864 	(obj:0)
_var3181_                          0.0331747322142614 	(obj:0)
_var3182_                          0.0161353596834321 	(obj:0)
_var3183_                          0.0371156995737651 	(obj:0)
_var3184_                          0.0879986869862673 	(obj:0)
_var3185_                           0.068003271070327 	(obj:0)
_var3186_                         0.00585140295881933 	(obj:0)
_var3188_                          0.0550717807484512 	(obj:0)
_var3190_                            0.11240601089461 	(obj:0)
_var3191_                          0.0143641938543377 	(obj:0)
_var3193_                          0.0268301796974983 	(obj:0)
_var3194_                          0.0981201203101372 	(obj:0)
_var3195_                           0.139742281219259 	(obj:0)
_var3196_                           0.056378839557077 	(obj:0)
_var3200_                          0.0851574284279421 	(obj:0)
_var3201_                          0.0112087209044086 	(obj:0)
_var3202_                         0.00484612073747463 	(obj:0)
_var3203_                          0.0482960423401427 	(obj:0)
_var3204_                          0.0462533528832231 	(obj:0)
_var3206_                         0.00356869481531688 	(obj:0)
_var3207_                          0.0166319670652168 	(obj:0)
_var3208_                          0.0313928836758654 	(obj:0)
_var3210_                          0.0219877863790167 	(obj:0)
_var3211_                          0.0807567672566546 	(obj:0)
_var3212_                          0.0216559611872637 	(obj:0)
_var3214_                         0.00199667130170705 	(obj:0)
_var3217_                           0.018318941034407 	(obj:0)
_var3218_                          0.0910961010996182 	(obj:0)
_var3220_                         0.00453219397452992 	(obj:0)
_var3221_                          0.0125217347709042 	(obj:0)
_var3222_                         0.00479443511312713 	(obj:0)
